data/instances/vrp_files/train_1.vrp
NAME : 1
COMMENT : Generated instance No. 1
TYPE : CVRP
DIMENSION : 21
EDGE_WEIGHT_TYPE : EUC_2D
CAPACITY : 30
NODE_COORD_SECTION
 1 439 201
 2 961 844
 3 747 539
 4 586 965
 5 607 275
 6 296 165
 7 15 423
 8 394 293
 9 14 198
 10 711 790
 11 605 926
 12 651 914
 13 850 449
 14 95 370
 15 668 665
 16 591 274
 17 561 382
 18 971 848
 19 721 235
 20 256 40
 21 710 110
DEMAND_SECTION
1 0
2 7
3 1
4 4
5 4
6 5
7 7
8 7
9 4
10 7
11 3
12 6
13 2
14 10
15 9
16 5
17 6
18 4
19 10
20 7
21 9
DEPOT_SECTION
 1
 -1
EOF